!File created by NanoVNA
# Hz S RI R 50
286000000 -0.878557056  0.476284320  0.006870547  0.004421246 0 0 0 0
289000000 -0.874144448  0.480955744  0.007035680  0.004372797 0 0 0 0
292000000 -0.870865280  0.487393152  0.007138659  0.004346256 0 0 0 0
295000000 -0.867159808  0.494349472  0.007275691  0.004375297 0 0 0 0
298000000 -0.863031296  0.498984064  0.007394760  0.004365453 0 0 0 0
301000000 -0.864955328  0.504564160  0.007937150  0.003934715 0 0 0 0
304000000 -0.862164288  0.511682880  0.007411055  0.004698525 0 0 0 0
307000000 -0.858236160  0.519028960  0.007929804  0.004822938 0 0 0 0
310000000 -0.852316352  0.525942400  0.008596472  0.004837145 0 0 0 0
313000000 -0.849308032  0.532530720  0.008942932  0.004357830 0 0 0 0
316000000 -0.845349120  0.540480576  0.008687826  0.003823512 0 0 0 0
319000000 -0.840091392  0.550454720  0.008586356  0.003679890 0 0 0 0
322000000 -0.834609984  0.556749760  0.009174922  0.003957427 0 0 0 0
325000000 -0.826121920  0.558648256  0.008850732  0.003612920 0 0 0 0
328000000 -0.824089088  0.572998336  0.008951902  0.003859992 0 0 0 0
331000000 -0.818364160  0.582268544  0.009293552  0.003949746 0 0 0 0
334000000 -0.812195968  0.590797760  0.009496896  0.004105740 0 0 0 0
337000000 -0.806824000  0.598041280  0.010195020  0.003964168 0 0 0 0
340000000 -0.799969216  0.607077888  0.010179262  0.004224388 0 0 0 0
343000000 -0.793268352  0.616160832  0.010579292  0.004227311 0 0 0 0
346000000 -0.784982016  0.627577920  0.011171982  0.003941641 0 0 0 0
349000000 -0.777859584  0.635526016  0.011562754  0.004216272 0 0 0 0
352000000 -0.769184512  0.645359168  0.011867804  0.004029419 0 0 0 0
355000000 -0.759835392  0.655691264  0.012537604  0.004218946 0 0 0 0
358000000 -0.750459264  0.667388480  0.013084032  0.004307244 0 0 0 0
361000000 -0.740346496  0.679109952  0.013982900  0.004236259 0 0 0 0
364000000 -0.727336192  0.690304960  0.014908452  0.004650325 0 0 0 0
367000000 -0.716571776  0.704548608  0.015319670  0.004393024 0 0 0 0
370000000 -0.702372544  0.717686656  0.016875714  0.004549606 0 0 0 0
373000000 -0.686934976  0.732191936  0.018097066  0.004098254 0 0 0 0
376000000 -0.669949632  0.748183680  0.019587158  0.004421630 0 0 0 0
379000000 -0.650503808  0.764668864  0.021290968  0.004772906 0 0 0 0
382000000 -0.630117568  0.783417920  0.023827336  0.004473016 0 0 0 0
385000000 -0.602912832  0.802545344  0.026212924  0.003871029 0 0 0 0
388000000 -0.574215104  0.822283200  0.030028008  0.003399522 0 0 0 0
391000000 -0.539066048  0.844906432  0.033891504  0.002936485 0 0 0 0
394000000 -0.497160928  0.868617088  0.039215392  0.002237069 0 0 0 0
397000000 -0.446617920  0.893133760  0.046314580  0.000788912 0 0 0 0
400000000 -0.383650144  0.918637056  0.055208764 -0.002073931 0 0 0 0
403000000 -0.314972160  0.939537344  0.067049040 -0.006613489 0 0 0 0
406000000 -0.199358624  0.961787200  0.082843368 -0.013981664 0 0 0 0
409000000 -0.060891520  0.967523008  0.104475496 -0.027209460 0 0 0 0
412000000  0.124600480  0.937299328  0.134393744 -0.051901288 0 0 0 0
415000000  0.362162784  0.825223488  0.172993392 -0.100506872 0 0 0 0
418000000  0.609982144  0.544467904  0.211062176 -0.198562848 0 0 0 0
421000000  0.679089408  0.035857236  0.192610624 -0.381002656 0 0 0 0
424000000  0.328345088 -0.437530368 -0.013627410 -0.586273344 0 0 0 0
427000000 -0.192777856 -0.475064640 -0.367124672 -0.575412224 0 0 0 0
430000000 -0.456532224 -0.204007152 -0.619712384 -0.362245152 0 0 0 0
433000000 -0.384920928  0.057725808 -0.760381248 -0.072462768 0 0 0 0
436000000 -0.098156848  0.013836938 -0.754459712  0.328788832 0 0 0 0
439000000 -0.108228152 -0.389867008 -0.399060608  0.665871296 0 0 0 0
442000000 -0.471703136 -0.540332992  0.005009830  0.582261248 0 0 0 0
445000000 -0.731011584 -0.439372704  0.144926496  0.373777408 0 0 0 0
448000000 -0.863439168 -0.302017440  0.158761456  0.236418672 0 0 0 0
451000000 -0.928018048 -0.179954384  0.142822064  0.158136992 0 0 0 0
454000000 -0.959427392 -0.083667040  0.123930544  0.111618400 0 0 0 0
457000000 -0.973786880 -0.004984130  0.106689560  0.082777920 0 0 0 0
460000000 -0.977993024  0.060129724  0.093313240  0.063706248 0 0 0 0
463000000 -0.979969216  0.113715920  0.082555240  0.050396116 0 0 0 0
466000000 -0.977376192  0.157288496  0.073214176  0.041384036 0 0 0 0
469000000 -0.972586880  0.197038048  0.066468864  0.034401020 0 0 0 0
472000000 -0.967967488  0.230941216  0.060217828  0.029039984 0 0 0 0
475000000 -0.962927680  0.259740448  0.055353664  0.024924558 0 0 0 0
478000000 -0.956644352  0.285740992  0.051138532  0.021782770 0 0 0 0
481000000 -0.948530496  0.307186208  0.047810312  0.019093078 0 0 0 0
484000000 -0.944090944  0.331397248  0.044856472  0.016689982 0 0 0 0
487000000 -0.938364416  0.350062752  0.042079160  0.015103788 0 0 0 0
490000000 -0.932528064  0.367943040  0.040176152  0.013744316 0 0 0 0
493000000 -0.926305920  0.384259872  0.038141648  0.012624544 0 0 0 0
496000000 -0.920408512  0.400013920  0.036475812  0.011282302 0 0 0 0
499000000 -0.915039872  0.414856864  0.034669236  0.010768654 0 0 0 0
502000000 -0.909685888  0.427067328  0.034218012  0.009888566 0 0 0 0
505000000 -0.904630592  0.440013408  0.032598078  0.009207056 0 0 0 0
508000000 -0.899649664  0.450123488  0.031708616  0.008430330 0 0 0 0
511000000 -0.894756160  0.461537056  0.030446154  0.007667338 0 0 0 0
514000000 -0.889794176  0.472289280  0.029837650  0.007108373 0 0 0 0
517000000 -0.884804544  0.481824864  0.029258462  0.006808174 0 0 0 0
520000000 -0.880375616  0.492784544  0.028543578  0.006530797 0 0 0 0
523000000 -0.875872000  0.500527872  0.027604444  0.005900432 0 0 0 0
526000000 -0.870864960  0.509404608  0.027289130  0.005595873 0 0 0 0
529000000 -0.867160960  0.517389600  0.026641928  0.004907454 0 0 0 0
532000000 -0.863057408  0.526252384  0.025721766  0.004923638 0 0 0 0
535000000 -0.858680640  0.534012800  0.025339066  0.004569774 0 0 0 0
538000000 -0.854132864  0.542025920  0.025012696  0.004481020 0 0 0 0
541000000 -0.848623488  0.550602304  0.025030092  0.004755236 0 0 0 0
544000000 -0.845224704  0.557691904  0.024573640  0.004389240 0 0 0 0
547000000 -0.841130560  0.564971968  0.025138730  0.004541115 0 0 0 0
550000000 -0.836568384  0.573039552  0.025513242  0.004273461 0 0 0 0
553000000 -0.833557696  0.577891776  0.025569464  0.004025256 0 0 0 0
556000000 -0.828994944  0.585091520  0.025974108  0.003861596 0 0 0 0
559000000 -0.824923968  0.591895232  0.025575624  0.003334840 0 0 0 0
562000000 -0.820021376  0.598078400  0.026231712  0.002838803 0 0 0 0
565000000 -0.815928768  0.603694848  0.026414702  0.002480513 0 0 0 0
568000000 -0.811327936  0.609384000  0.026515854  0.001651242 0 0 0 0
571000000 -0.807546944  0.614741888  0.026666582  0.000914727 0 0 0 0
574000000 -0.802637568  0.621071552  0.026661716  0.000050440 0 0 0 0
577000000 -0.798787968  0.626990912  0.026986028 -0.001372799 0 0 0 0
580000000 -0.793533312  0.632539072  0.027187392 -0.002546221 0 0 0 0
583000000 -0.788987520  0.637305216  0.026600594 -0.004515186 0 0 0 0
586000000 -0.784048640  0.642719744  0.026134308 -0.005739084 0 0 0 0
