!File created by NanoVNA
# Hz S RI R 50
1000000 -0.999426240  0.002586244 -0.000003448  0.000092395 0 0 0 0
10990000 -0.998483648  0.028601854 -0.000008076  0.000273922 0 0 0 0
20980000 -0.997095808  0.054266252  0.000000985  0.000561398 0 0 0 0
30970000 -0.995428864  0.079841224  0.000090645  0.000790734 0 0 0 0
40960000 -0.993229696  0.105269160  0.000132256  0.000991775 0 0 0 0
50950000 -0.990577216  0.130806568  0.000273562  0.001227423 0 0 0 0
60940000 -0.987452608  0.156493616  0.000391316  0.001472347 0 0 0 0
70930000 -0.983779840  0.180939696  0.000530199  0.001693077 0 0 0 0
80920000 -0.979070848  0.206128544  0.000672261  0.001878168 0 0 0 0
90910000 -0.973275136  0.231819200  0.000848087  0.002084513 0 0 0 0
100900000 -0.968544768  0.257089440  0.001039916  0.002209773 0 0 0 0
110890000 -0.963137664  0.283273696  0.001184013  0.002315767 0 0 0 0
120880000 -0.956827712  0.307846592  0.001431011  0.002500588 0 0 0 0
130870000 -0.950836800  0.334142656  0.001663961  0.002545160 0 0 0 0
140860000 -0.942320128  0.359768224  0.001810503  0.002729044 0 0 0 0
150850000 -0.934045376  0.382916288  0.002121862  0.002768363 0 0 0 0
160840000 -0.925932160  0.408245984  0.002236118  0.002924562 0 0 0 0
170830000 -0.916351680  0.433486816  0.002448338  0.002997178 0 0 0 0
180820000 -0.907019840  0.458706432  0.002727461  0.003100491 0 0 0 0
190810000 -0.896722688  0.483406336  0.002992152  0.003096375 0 0 0 0
200800000 -0.885866560  0.508148960  0.003250463  0.003161412 0 0 0 0
210790000 -0.874228928  0.532342624  0.003500248  0.003167478 0 0 0 0
220780000 -0.862075584  0.558596032  0.003882796  0.003196796 0 0 0 0
230770000 -0.848183872  0.583100864  0.004079501  0.003264428 0 0 0 0
240760000 -0.834956224  0.607297856  0.004365993  0.003390621 0 0 0 0
250750000 -0.819632384  0.631546624  0.004694957  0.003419869 0 0 0 0
260740000 -0.804147968  0.656333760  0.005067521  0.003506469 0 0 0 0
270730000 -0.788475648  0.680564800  0.005457693  0.003619068 0 0 0 0
280720000 -0.770817664  0.704601856  0.005903757  0.003706457 0 0 0 0
290710000 -0.752598016  0.730017664  0.006416727  0.003794263 0 0 0 0
300700000 -0.739522240  0.754677824  0.006363645  0.002958475 0 0 0 0
310690000 -0.719147392  0.781459712  0.007764852  0.004276626 0 0 0 0
320680000 -0.697770880  0.810315072  0.008705800  0.003527496 0 0 0 0
330670000 -0.672026112  0.837323456  0.009467388  0.003900449 0 0 0 0
340660000 -0.644715648  0.863787968  0.010973872  0.004086041 0 0 0 0
350650000 -0.614255616  0.891800960  0.012592266  0.004139349 0 0 0 0
360640000 -0.580270080  0.920295616  0.014544394  0.004308151 0 0 0 0
370630000 -0.538649024  0.951206848  0.017789490  0.004256598 0 0 0 0
380620000 -0.488281440  0.986682752  0.022512928  0.004110864 0 0 0 0
390610000 -0.423589440  1.023330688  0.029943626  0.003199318 0 0 0 0
400600000 -0.324437344  1.064116476  0.043449808  0.001393078 0 0 0 0
410590000 -0.153386016  1.101232408  0.073866672 -0.007393737 0 0 0 0
420580000  0.223926048  1.046835540  0.160507968 -0.062957524 0 0 0 0
430570000  0.439241120  0.003502224  0.037841736 -0.725587840 0 0 0 0
440560000 -0.231492272 -0.284818944 -0.539494144  0.606419712 0 0 0 0
450550000 -0.952192960  0.325015104  0.106762232  0.106808944 0 0 0 0
460540000 -0.859702272  0.654707008  0.042575388  0.022332880 0 0 0 0
470530000 -0.769531456  0.793736064  0.021267276  0.007825313 0 0 0 0
480520000 -0.700784704  0.874381888  0.012752238  0.003610366 0 0 0 0
490510000 -0.646180096  0.930049344  0.008862428  0.001830837 0 0 0 0
500500000 -0.599273344  0.971424192  0.006285471  0.001156881 0 0 0 0
510490000 -0.557723392  1.005630136  0.004815466  0.001032481 0 0 0 0
520480000 -0.518503904  1.037006260  0.004352442  0.000553308 0 0 0 0
530470000 -0.481324896  1.061946868  0.004261052  0.000125426 0 0 0 0
540460000 -0.447660096  1.085338712  0.003008417 -0.000020626 0 0 0 0
550450000 -0.412136032  1.108852032  0.003039176  0.001206421 0 0 0 0
560440000 -0.380102400  1.131863000  0.003800803  0.000686900 0 0 0 0
570430000 -0.345838848  1.151312112  0.003537943  0.000110611 0 0 0 0
580420000 -0.309163616  1.168313984  0.003700370  0.000229816 0 0 0 0
590410000 -0.285469376  1.176196688  0.003160322  0.000085868 0 0 0 0
600400000 -0.254090160  1.178536896  0.003575083  0.001038610 0 0 0 0
610390000 -0.221929728  1.191619040  0.004248968 -0.000132556 0 0 0 0
620380000 -0.186113168  1.199387552  0.004043657  0.000485714 0 0 0 0
630370000 -0.157824592  1.206720832  0.003715048 -0.000232733 0 0 0 0
640360000 -0.128534856  1.214810016  0.004378282 -0.000592165 0 0 0 0
650350000 -0.101325144  1.230168704  0.003583247 -0.002046942 0 0 0 0
660340000 -0.067306576  1.236879824  0.002671745  0.000333580 0 0 0 0
670330000 -0.025294182  1.247051840  0.003516492  0.000506423 0 0 0 0
680320000  0.012966532  1.246413712  0.003630563  0.000019785 0 0 0 0
690310000  0.045717440  1.248925568  0.003678776 -0.000103132 0 0 0 0
700300000  0.080582976  1.248069648  0.003942500  0.000874377 0 0 0 0
710290000  0.116601192  1.246699808  0.004058690  0.000391567 0 0 0 0
720280000  0.152144464  1.237285264  0.005526169  0.002357806 0 0 0 0
730270000  0.185096848  1.232371456  0.005442993 -0.001172879 0 0 0 0
740260000  0.214484320  1.222599984  0.002779968 -0.002338615 0 0 0 0
750250000  0.237495680  1.217122912  0.003276957 -0.001301052 0 0 0 0
760240000  0.269274528  1.212038880  0.003178646 -0.001318926 0 0 0 0
770230000  0.300128672  1.198516128  0.003742590 -0.001415733 0 0 0 0
780220000  0.327424000  1.196019408  0.002922083 -0.001583658 0 0 0 0
790210000  0.354683264  1.175050256  0.002754027 -0.001180004 0 0 0 0
800200000  0.387532224  1.162442928  0.002458739 -0.001746499 0 0 0 0
810190000  0.410123232  1.151679392  0.003301221 -0.001985869 0 0 0 0
820180000  0.435304896  1.136931776  0.003382403 -0.001976032 0 0 0 0
830170000  0.460804000  1.120812536  0.003132507 -0.001884572 0 0 0 0
840160000  0.488703072  1.103913544  0.001914558 -0.000975494 0 0 0 0
850150000  0.513583136  1.083414672  0.002658242 -0.001237947 0 0 0 0
860140000  0.532870176  1.064366104  0.002361446 -0.002018182 0 0 0 0
870130000  0.556250496  1.049051524  0.002769408 -0.001930552 0 0 0 0
880120000  0.575451584  1.027391552  0.002511071 -0.002651148 0 0 0 0
890110000  0.589772480  1.007920623  0.002366083 -0.002052359 0 0 0 0
900100000  0.544509632  0.863619392  0.006448692 -0.004996208 0 0 0 0
910090000  0.548583808  0.831609984  0.004442744 -0.001885374 0 0 0 0
920080000  0.560642624  0.828382976  0.001086151 -0.000961946 0 0 0 0
930070000  0.568536448  0.800874560  0.001237937  0.000263124 0 0 0 0
940060000  0.575450688  0.767851840  0.005128939  0.000639764 0 0 0 0
950050000  0.576345280  0.744225856  0.004255140 -0.001974264 0 0 0 0
960040000  0.575950400  0.734316672  0.004119014 -0.001103147 0 0 0 0
970030000  0.585566464  0.700177280  0.001044727  0.000692923 0 0 0 0
980020000  0.579900096  0.676732800  0.005085804 -0.001080590 0 0 0 0
990010000  0.590681472  0.652678912  0.003564582 -0.002277309 0 0 0 0
1000000000  0.589950208  0.630135808 -0.003384662 -0.001904825 0 0 0 0
