!File created by NanoVNA
# Hz S RI R 50
385000000 -0.640925568  0.893256320  0.033394438  0.005529206 0 0 0 0
386000000 -0.631274944  0.901280704  0.034496412  0.005245073 0 0 0 0
387000000 -0.620158784  0.909901952  0.035524588  0.005047553 0 0 0 0
388000000 -0.609657408  0.918102400  0.036984412  0.004986016 0 0 0 0
389000000 -0.597211456  0.927015872  0.038440068  0.004570524 0 0 0 0
390000000 -0.580687104  0.935597696  0.039700808  0.004716945 0 0 0 0
391000000 -0.572011392  0.945644352  0.041881128  0.004075390 0 0 0 0
392000000 -0.558264320  0.954803968  0.043499000  0.003843790 0 0 0 0
393000000 -0.543750528  0.964342016  0.045544544  0.003935243 0 0 0 0
394000000 -0.528027904  0.973420544  0.047681144  0.003041379 0 0 0 0
395000000 -0.509910048  0.983570176  0.050080324  0.002707569 0 0 0 0
396000000 -0.491575328  0.994339200  0.052543940  0.002319478 0 0 0 0
397000000 -0.471867552  1.004418731  0.055019408  0.001798326 0 0 0 0
398000000 -0.451184544  1.013890744  0.058133460  0.000711784 0 0 0 0
399000000 -0.427230432  1.024982452  0.061395720 -0.000119753 0 0 0 0
400000000 -0.402432832  1.035744428  0.065060748 -0.001201592 0 0 0 0
401000000 -0.375022016  1.045724272  0.068748216 -0.002426347 0 0 0 0
402000000 -0.345703424  1.055668472  0.073062224 -0.003633861 0 0 0 0
403000000 -0.303848672  1.067642208  0.077438616 -0.005250681 0 0 0 0
404000000 -0.276793152  1.073923232  0.082882968 -0.007301450 0 0 0 0
405000000 -0.238153952  1.081052424  0.088694104 -0.009874336 0 0 0 0
406000000 -0.195369648  1.088847040  0.094745488 -0.012799916 0 0 0 0
407000000 -0.148472688  1.092393040  0.102053432 -0.016239692 0 0 0 0
408000000 -0.099038088  1.094300512  0.109577136 -0.020509440 0 0 0 0
409000000 -0.039844952  1.092334272  0.118844168 -0.025773492 0 0 0 0
410000000  0.022380692  1.086643816  0.128334328 -0.032080178 0 0 0 0
411000000  0.090604160  1.073916672  0.139191008 -0.040284600 0 0 0 0
412000000  0.165495136  1.052397252  0.151222192 -0.050314812 0 0 0 0
413000000  0.246348400  1.021400690  0.165208624 -0.062571912 0 0 0 0
414000000  0.331758336  0.976741504  0.179998576 -0.078429120 0 0 0 0
415000000  0.418964928  0.914518720  0.195922944 -0.098430584 0 0 0 0
416000000  0.510241984  0.839581888  0.213445328 -0.124739600 0 0 0 0
417000000  0.589728000  0.725177024  0.229750784 -0.157190416 0 0 0 0
418000000  0.656921792  0.592963200  0.245140832 -0.199402992 0 0 0 0
419000000  0.701398976  0.435761472  0.255950896 -0.252836704 0 0 0 0
420000000  0.710570816  0.258904192  0.257641584 -0.319146848 0 0 0 0
421000000  0.673597632  0.075251160  0.243474928 -0.398155072 0 0 0 0
422000000  0.588477632 -0.098641224  0.205757392 -0.488169568 0 0 0 0
423000000  0.459575072 -0.242421456  0.134582448 -0.577610432 0 0 0 0
424000000  0.300156448 -0.343404416  0.029213100 -0.650883456 0 0 0 0
425000000  0.130064456 -0.391821792 -0.104856880 -0.692376128 0 0 0 0
426000000 -0.033955672 -0.391809984 -0.248980096 -0.691697920 0 0 0 0
427000000 -0.175900064 -0.350239904 -0.384521280 -0.649744064 0 0 0 0
428000000 -0.286779712 -0.278994080 -0.500120000 -0.579562880 0 0 0 0
429000000 -0.359236960 -0.178213424 -0.591247488 -0.490970816 0 0 0 0
430000000 -0.398840160 -0.090879448 -0.665555776 -0.395426336 0 0 0 0
431000000 -0.395775840  0.002703727 -0.722279360 -0.294832960 0 0 0 0
432000000 -0.355699776  0.081747192 -0.767018816 -0.186736352 0 0 0 0
433000000 -0.280934528  0.131733600 -0.798773888 -0.071007848 0 0 0 0
434000000 -0.183803712  0.138405280 -0.817488896  0.056978732 0 0 0 0
435000000 -0.084116984  0.086921760 -0.808100672  0.199125888 0 0 0 0
436000000 -0.013079070 -0.020170594 -0.765733632  0.351209728 0 0 0 0
437000000  0.000830459 -0.161720432 -0.674310592  0.494956032 0 0 0 0
438000000 -0.049427948 -0.301262720 -0.538923968  0.609594944 0 0 0 0
439000000 -0.148626960 -0.408017472 -0.374502784  0.668447296 0 0 0 0
440000000 -0.270457728 -0.470394432 -0.212834624  0.667468096 0 0 0 0
441000000 -0.392098496 -0.491893984 -0.079264256  0.622168512 0 0 0 0
442000000 -0.504272768 -0.482837024  0.015399338  0.552940224 0 0 0 0
443000000 -0.596206720 -0.457661792  0.081567720  0.478393216 0 0 0 0
444000000 -0.673890624 -0.420809344  0.118324768  0.408401760 0 0 0 0
445000000 -0.736299008 -0.378324256  0.139052720  0.347803712 0 0 0 0
446000000 -0.787216576 -0.334957952  0.146846704  0.295865120 0 0 0 0
447000000 -0.827705728 -0.290316448  0.148695024  0.253185328 0 0 0 0
448000000 -0.861486784 -0.248917920  0.146461872  0.217843344 0 0 0 0
449000000 -0.888259264 -0.209114688  0.141754208  0.188655648 0 0 0 0
450000000 -0.909427456 -0.171489152  0.135892336  0.164457440 0 0 0 0
451000000 -0.927711872 -0.134425424  0.129874648  0.144588448 0 0 0 0
452000000 -0.942003456 -0.100768680  0.123023320  0.127436016 0 0 0 0
453000000 -0.955044352 -0.070483264  0.117032928  0.113223232 0 0 0 0
454000000 -0.963943232 -0.041531760  0.110951840  0.101521312 0 0 0 0
455000000 -0.963248832 -0.006508461  0.106093520  0.091530928 0 0 0 0
456000000 -0.978667904  0.011614710  0.100075752  0.082529064 0 0 0 0
457000000 -0.984241216  0.036562604  0.094943776  0.074574128 0 0 0 0
458000000 -0.989372096  0.059598184  0.090380968  0.067837032 0 0 0 0
459000000 -0.990475840  0.080325464  0.086065392  0.062475100 0 0 0 0
460000000 -0.993532736  0.100724144  0.081871824  0.057307716 0 0 0 0
461000000 -0.996346688  0.120321752  0.078523472  0.052635868 0 0 0 0
462000000 -0.997489600  0.138529456  0.074765712  0.048730092 0 0 0 0
463000000 -0.998146688  0.156116752  0.071776528  0.045355284 0 0 0 0
464000000 -0.999613120  0.172741584  0.069058296  0.042105868 0 0 0 0
465000000 -1.000301600  0.187832944  0.066180832  0.039257152 0 0 0 0
466000000 -1.000988007  0.203043440  0.063374020  0.037040012 0 0 0 0
467000000 -1.001041770  0.218174752  0.061079824  0.034446984 0 0 0 0
468000000 -0.998770560  0.216123392  0.058846292  0.032308978 0 0 0 0
469000000 -0.999666176  0.244292784  0.056549408  0.030466472 0 0 0 0
470000000 -0.999862336  0.256747040  0.054727516  0.028533092 0 0 0 0
471000000 -0.999107328  0.269427008  0.053213212  0.027217754 0 0 0 0
472000000 -0.997337792  0.279776256  0.051439192  0.025384142 0 0 0 0
473000000 -0.996887040  0.290817376  0.050004220  0.024185528 0 0 0 0
474000000 -0.996003648  0.301957376  0.048402996  0.022981804 0 0 0 0
475000000 -0.994655680  0.312077216  0.047338752  0.022066206 0 0 0 0
476000000 -0.994278272  0.322280064  0.045457952  0.021064334 0 0 0 0
477000000 -0.993517952  0.332187776  0.044559880  0.020034174 0 0 0 0
478000000 -0.991990272  0.341901056  0.043481484  0.019559912 0 0 0 0
479000000 -0.989733568  0.351495712  0.042482420  0.018410828 0 0 0 0
480000000 -0.989504832  0.359523520  0.041262904  0.017724880 0 0 0 0
481000000 -0.983180544  0.369648064  0.040262036  0.016979976 0 0 0 0
482000000 -0.986143680  0.376063808  0.039638632  0.016436690 0 0 0 0
483000000 -0.985309696  0.384615872  0.038177200  0.015667892 0 0 0 0
484000000 -0.983666240  0.392384128  0.037793816  0.015210922 0 0 0 0
485000000 -0.981628800  0.398918528  0.036766332  0.014630096 0 0 0 0
