!File created by NanoVNA
# Hz S RI R 50
286000000 -0.773339648  0.720381184  0.006133942  0.003784374 0 0 0 0
289000000 -0.765720384  0.725915968  0.006263458  0.003799969 0 0 0 0
292000000 -0.759872576  0.734435264  0.006452359  0.003828533 0 0 0 0
295000000 -0.753754752  0.741068928  0.006593920  0.003837977 0 0 0 0
298000000 -0.747481472  0.747093504  0.006778716  0.003870705 0 0 0 0
301000000 -0.750638464  0.757168384  0.006851802  0.004020170 0 0 0 0
304000000 -0.742803840  0.764329600  0.006968873  0.003946454 0 0 0 0
307000000 -0.738142656  0.772297920  0.006784814  0.003858209 0 0 0 0
310000000 -0.733356864  0.781452928  0.007392274  0.004725222 0 0 0 0
313000000 -0.726837824  0.788678400  0.008196613  0.004268371 0 0 0 0
316000000 -0.720806208  0.796614848  0.008697984  0.003455411 0 0 0 0
319000000 -0.714842176  0.806660288  0.008293315  0.003396510 0 0 0 0
322000000 -0.706265344  0.817003712  0.008726464  0.003784717 0 0 0 0
325000000 -0.717165952  0.811587968  0.009235034  0.003677300 0 0 0 0
328000000 -0.689539008  0.832345600  0.009110826  0.003433586 0 0 0 0
331000000 -0.683828800  0.840962752  0.009435026  0.003747448 0 0 0 0
334000000 -0.674708928  0.848364864  0.009998586  0.003862507 0 0 0 0
337000000 -0.667470016  0.855825216  0.010557182  0.004010363 0 0 0 0
340000000 -0.658488576  0.864559104  0.010612712  0.003916292 0 0 0 0
343000000 -0.652511808  0.874109056  0.011034820  0.004173111 0 0 0 0
346000000 -0.641180160  0.881836288  0.011839120  0.004094703 0 0 0 0
349000000 -0.634519936  0.891414528  0.012013356  0.004268245 0 0 0 0
352000000 -0.624367360  0.899751296  0.012730056  0.004259976 0 0 0 0
355000000 -0.614632064  0.908906944  0.013374868  0.004192030 0 0 0 0
358000000 -0.603475456  0.916982656  0.013788886  0.004171385 0 0 0 0
361000000 -0.593034560  0.926927296  0.014862154  0.004256757 0 0 0 0
364000000 -0.583013632  0.936928640  0.015297390  0.004290028 0 0 0 0
367000000 -0.569077376  0.945270464  0.016485908  0.004506634 0 0 0 0
370000000 -0.556884224  0.955910016  0.017450310  0.004307329 0 0 0 0
373000000 -0.542418112  0.966717632  0.018734894  0.004171458 0 0 0 0
376000000 -0.528656768  0.976632512  0.019883380  0.004044446 0 0 0 0
379000000 -0.513633536  0.987607552  0.021481054  0.004203798 0 0 0 0
382000000 -0.496390528  0.999642176  0.022939664  0.004221635 0 0 0 0
385000000 -0.477372160  1.010150552  0.025052016  0.003753615 0 0 0 0
388000000 -0.456907936  1.022623300  0.027550064  0.003469394 0 0 0 0
391000000 -0.433221248  1.036015512  0.030197576  0.003499725 0 0 0 0
394000000 -0.409144288  1.047878028  0.033330608  0.003347063 0 0 0 0
397000000 -0.379821600  1.061401844  0.037219772  0.002419917 0 0 0 0
400000000 -0.346483904  1.075393912  0.042208596  0.001585685 0 0 0 0
403000000 -0.305004704  1.090470672  0.048116172  0.000483206 0 0 0 0
406000000 -0.259700800  1.100343464  0.056317400 -0.001680426 0 0 0 0
409000000 -0.200781968  1.113051536  0.066420064 -0.004484691 0 0 0 0
412000000 -0.130158992  1.121267320  0.080508856 -0.009763330 0 0 0 0
415000000 -0.037445380  1.122931120  0.099429352 -0.018427506 0 0 0 0
418000000  0.084020712  1.107575416  0.126549096 -0.034872020 0 0 0 0
421000000  0.246029984  1.053599476  0.166565360 -0.067310792 0 0 0 0
424000000  0.449939776  0.915308672  0.222629472 -0.138137504 0 0 0 0
427000000  0.633831424  0.587654528  0.276083584 -0.309130976 0 0 0 0
430000000  0.522415040  0.083599656  0.139216064 -0.658730624 0 0 0 0
433000000  0.062762096 -0.092672568 -0.466793344 -0.745524288 0 0 0 0
436000000 -0.097021768  0.055745256 -0.849292928 -0.263417840 0 0 0 0
439000000 -0.065320804 -0.103545696 -0.811564672  0.337845184 0 0 0 0
442000000 -0.452073792 -0.315320576 -0.228506000  0.662951808 0 0 0 0
445000000 -0.823514688 -0.111727256  0.114559688  0.386215200 0 0 0 0
448000000 -0.945526976  0.147272480  0.133587536  0.186320448 0 0 0 0
451000000 -0.958373696  0.337491616  0.103431808  0.098232800 0 0 0 0
454000000 -0.939587520  0.470820448  0.076715760  0.057173652 0 0 0 0
457000000 -0.911738176  0.566105728  0.058128300  0.035752428 0 0 0 0
460000000 -0.881285248  0.637973696  0.044848860  0.023773680 0 0 0 0
463000000 -0.853329472  0.693620672  0.035252964  0.016384298 0 0 0 0
466000000 -0.825883584  0.737671616  0.028810462  0.012097634 0 0 0 0
469000000 -0.802359488  0.777091264  0.023506914  0.009273058 0 0 0 0
472000000 -0.780485184  0.808317184  0.019547726  0.007075188 0 0 0 0
475000000 -0.758107200  0.834422400  0.016593106  0.005357150 0 0 0 0
478000000 -0.739105216  0.858623296  0.014157298  0.004114954 0 0 0 0
481000000 -0.720875520  0.877953984  0.012603812  0.003477418 0 0 0 0
484000000 -0.704421888  0.898441664  0.011286172  0.002872892 0 0 0 0
487000000 -0.687732352  0.915917504  0.009670918  0.002449320 0 0 0 0
490000000 -0.672510848  0.932035328  0.008950082  0.002117761 0 0 0 0
493000000 -0.657259840  0.947326592  0.008108359  0.001695655 0 0 0 0
496000000 -0.642964928  0.960257152  0.006984749  0.001404293 0 0 0 0
499000000 -0.630306816  0.973556032  0.006893320  0.001112566 0 0 0 0
502000000 -0.617236416  0.984543744  0.006373920  0.001200358 0 0 0 0
505000000 -0.603417600  0.996534336  0.005684944  0.001436240 0 0 0 0
508000000 -0.592061504  1.006595612  0.005520241  0.000773094 0 0 0 0
511000000 -0.579929216  1.016872526  0.005143787  0.000833359 0 0 0 0
514000000 -0.568113024  1.027762890  0.004851583  0.000727149 0 0 0 0
517000000 -0.555584064  1.036965968  0.005064528  0.000895837 0 0 0 0
520000000 -0.545292032  1.045784472  0.004703608  0.000607698 0 0 0 0
523000000 -0.534911392  1.055261492  0.004299780  0.000730380 0 0 0 0
526000000 -0.523524640  1.062966108  0.004454812  0.000233449 0 0 0 0
529000000 -0.513452064  1.071363808  0.004520319  0.000136474 0 0 0 0
532000000 -0.501976896  1.079675080  0.004038953 -0.000133205 0 0 0 0
535000000 -0.492453696  1.086324808  0.004266558  0.000216388 0 0 0 0
538000000 -0.481383104  1.093292240  0.003766243 -0.000239911 0 0 0 0
541000000 -0.471781984  1.101428744  0.002818052 -0.000282239 0 0 0 0
544000000 -0.462273344  1.110441208  0.002728480  0.000175263 0 0 0 0
547000000 -0.450514528  1.116359112  0.002609477  0.000273640 0 0 0 0
550000000 -0.439013280  1.124407768  0.003074586  0.000543975 0 0 0 0
553000000 -0.428813056  1.130814672  0.003698108  0.000814259 0 0 0 0
556000000 -0.420555264  1.139063840  0.003689828  0.000898175 0 0 0 0
559000000 -0.411092320  1.145467040  0.003889152  0.000612621 0 0 0 0
562000000 -0.400315136  1.152614592  0.003816968  0.000733110 0 0 0 0
565000000 -0.390333536  1.158545248  0.004016837  0.000420975 0 0 0 0
568000000 -0.380435040  1.165271872  0.003530098  0.000483549 0 0 0 0
571000000 -0.369497952  1.172565584  0.003483998  0.000651148 0 0 0 0
574000000 -0.359570624  1.178959376  0.003410468  0.000336813 0 0 0 0
577000000 -0.348941440  1.184883472  0.003435289 -0.000227354 0 0 0 0
580000000 -0.339224448  1.191516288  0.003497882  0.000167582 0 0 0 0
583000000 -0.328960128  1.196300864  0.003935616  0.000552691 0 0 0 0
586000000 -0.316975040  1.201671360  0.003597661  0.000417511 0 0 0 0
