!File created by NanoVNA
# Hz S RI R 50
431000000 -0.394241536 -0.126637816 -0.699005376 -0.343691616 0 0 0 0
431100000 -0.395224384 -0.116820416 -0.705007104 -0.333475776 0 0 0 0
431200000 -0.396037792 -0.107050240 -0.711024384 -0.323471840 0 0 0 0
431300000 -0.396133632 -0.096318048 -0.716551872 -0.312643040 0 0 0 0
431400000 -0.395470368 -0.086020576 -0.721518464 -0.301556000 0 0 0 0
431500000 -0.395056384 -0.076379392 -0.727549120 -0.290665024 0 0 0 0
431600000 -0.393724544 -0.066646024 -0.732733440 -0.280603648 0 0 0 0
431700000 -0.392350688 -0.056209052 -0.737756224 -0.269533632 0 0 0 0
431800000 -0.390660928 -0.047324324 -0.742712064 -0.258366768 0 0 0 0
431900000 -0.388199872 -0.037872300 -0.747236096 -0.247568288 0 0 0 0
432000000 -0.385243424 -0.028602490 -0.751016576 -0.236865872 0 0 0 0
432100000 -0.382076128 -0.019386868 -0.756248384 -0.225447392 0 0 0 0
432200000 -0.378790464 -0.010601452 -0.760382272 -0.213750576 0 0 0 0
432300000 -0.374790304 -0.001854697 -0.764070848 -0.203759488 0 0 0 0
432400000 -0.370660960  0.007003365 -0.769249216 -0.191596992 0 0 0 0
432500000 -0.366138912  0.015429224 -0.773069056 -0.180660224 0 0 0 0
432600000 -0.361194016  0.023409458 -0.776733632 -0.168539648 0 0 0 0
432700000 -0.355900160  0.030549598 -0.780708288 -0.156576848 0 0 0 0
432800000 -0.349524160  0.037956648 -0.783985408 -0.145236912 0 0 0 0
432900000 -0.343720704  0.045507604 -0.787706240 -0.133316608 0 0 0 0
433000000 -0.337099520  0.051907520 -0.791201728 -0.121349512 0 0 0 0
433100000 -0.330927136  0.058342704 -0.793671936 -0.109358552 0 0 0 0
433200000 -0.323362112  0.064352312 -0.796799552 -0.097321064 0 0 0 0
433300000 -0.304748928  0.064845616 -0.776286272 -0.089534224 0 0 0 0
433400000 -0.308231040  0.076184552 -0.801991360 -0.073071752 0 0 0 0
433500000 -0.300296032  0.080813296 -0.804762560 -0.061310292 0 0 0 0
433600000 -0.292371712  0.085799344 -0.806462464 -0.047945648 0 0 0 0
433700000 -0.282906944  0.089671304 -0.809163008 -0.035775184 0 0 0 0
433800000 -0.274452480  0.093189184 -0.810726848 -0.022564292 0 0 0 0
433900000 -0.264521536  0.097282832 -0.812921728 -0.010350020 0 0 0 0
434000000 -0.256074336  0.100167472 -0.813940864  0.004071206 0 0 0 0
434100000 -0.245967296  0.102294728 -0.814832640  0.016574144 0 0 0 0
434200000 -0.236323424  0.105121368 -0.816780736  0.029532582 0 0 0 0
434300000 -0.225963600  0.105896064 -0.818147200  0.042849720 0 0 0 0
434400000 -0.216061104  0.107388544 -0.818848256  0.055092036 0 0 0 0
434500000 -0.205560112  0.107506848 -0.819028032  0.069311232 0 0 0 0
434600000 -0.194872480  0.107771608 -0.819448000  0.083295016 0 0 0 0
434700000 -0.184759984  0.107327720 -0.818968768  0.097787976 0 0 0 0
434800000 -0.174110368  0.105861992 -0.818446912  0.111302168 0 0 0 0
434900000 -0.163317776  0.104348264 -0.818804736  0.124221920 0 0 0 0
435000000 -0.152144272  0.101756056 -0.817623040  0.138262128 0 0 0 0
435100000 -0.141127456  0.098799232 -0.817004032  0.152622816 0 0 0 0
435200000 -0.130153016  0.095517080 -0.814949184  0.167204464 0 0 0 0
435300000 -0.119512088  0.091244168 -0.813537536  0.181051008 0 0 0 0
435400000 -0.108972816  0.086726400 -0.812429824  0.196081904 0 0 0 0
435500000 -0.098324224  0.081559672 -0.808768640  0.209858336 0 0 0 0
435600000 -0.087134312  0.075932256 -0.806401728  0.225723808 0 0 0 0
435700000 -0.077240840  0.068439304 -0.803026688  0.240218288 0 0 0 0
435800000 -0.067020164  0.062180284 -0.799920704  0.255081648 0 0 0 0
435900000 -0.057322804  0.054469900 -0.796061248  0.269984224 0 0 0 0
436000000 -0.047497268  0.046086140 -0.792165376  0.283452576 0 0 0 0
436100000 -0.038099812  0.037249880 -0.788242624  0.299540288 0 0 0 0
436200000 -0.029290714  0.027492768 -0.782246592  0.313245248 0 0 0 0
436300000 -0.020439022  0.017752990 -0.777078336  0.328302368 0 0 0 0
436400000 -0.012030940  0.006861676 -0.771168000  0.343466304 0 0 0 0
436500000 -0.003921122 -0.004188370 -0.764690368  0.358803520 0 0 0 0
436600000  0.003548219 -0.016033038 -0.758428800  0.373828224 0 0 0 0
436700000  0.010396446 -0.027673676 -0.751427200  0.387568000 0 0 0 0
436800000  0.017516262 -0.040583956 -0.743430720  0.402015936 0 0 0 0
436900000  0.022985072 -0.053793288 -0.735172736  0.416553184 0 0 0 0
437000000  0.028390496 -0.067083612 -0.726639808  0.430697152 0 0 0 0
437100000  0.033178392 -0.081149088 -0.717808576  0.444349216 0 0 0 0
437200000  0.036625652 -0.095349664 -0.709135232  0.458782944 0 0 0 0
437300000  0.040834512 -0.110236632 -0.697550400  0.472409920 0 0 0 0
437400000  0.043971444 -0.124732552 -0.686798272  0.480538432 0 0 0 0
437500000  0.046066604 -0.139761536 -0.676990336  0.499056160 0 0 0 0
437600000  0.047307084 -0.154772464 -0.665640448  0.511955744 0 0 0 0
437700000  0.048453712 -0.170803216 -0.654198976  0.525043360 0 0 0 0
437800000  0.049089600 -0.186423696 -0.641238336  0.536626400 0 0 0 0
437900000  0.048171100 -0.201314560 -0.628726912  0.548935680 0 0 0 0
438000000  0.046298404 -0.217665248 -0.614854976  0.560364096 0 0 0 0
438100000  0.045016916 -0.233365152 -0.602196416  0.571735424 0 0 0 0
438200000  0.042005684 -0.249416912 -0.589365696  0.582494720 0 0 0 0
438300000  0.038589200 -0.264586480 -0.574907712  0.592435648 0 0 0 0
438400000  0.033823688 -0.281046112 -0.558826432  0.602749504 0 0 0 0
438500000  0.029491750 -0.296048000 -0.544871744  0.611239040 0 0 0 0
438600000  0.023949032 -0.310829888 -0.528528384  0.620795904 0 0 0 0
438700000  0.018169372 -0.326177120 -0.515379136  0.627867776 0 0 0 0
438800000  0.011296734 -0.341217696 -0.499315360  0.636449216 0 0 0 0
438900000  0.003711135 -0.355126400 -0.482993376  0.642720448 0 0 0 0
439000000 -0.004123562 -0.369539488 -0.467916800  0.650068672 0 0 0 0
439100000 -0.012453704 -0.383430880 -0.451245376  0.656869248 0 0 0 0
439200000 -0.021368088 -0.396653312 -0.435405984  0.661091904 0 0 0 0
439300000 -0.031224970 -0.409494816 -0.418501440  0.666291008 0 0 0 0
439400000 -0.041569160 -0.422087808 -0.401922816  0.669849856 0 0 0 0
439500000 -0.051495396 -0.433923680 -0.385757664  0.674540480 0 0 0 0
439600000 -0.062349992 -0.445859264 -0.369422528  0.677605248 0 0 0 0
439700000 -0.073312824 -0.457239136 -0.352806496  0.679850240 0 0 0 0
439800000 -0.085304248 -0.467922240 -0.335358208  0.682240384 0 0 0 0
439900000 -0.097200832 -0.477992352 -0.319571648  0.683559040 0 0 0 0
440000000 -0.109404176 -0.487669760 -0.304070560  0.684808192 0 0 0 0
440100000 -0.121609952 -0.496708736 -0.288042816  0.685093376 0 0 0 0
440200000 -0.134721680 -0.505796736 -0.271461056  0.683991424 0 0 0 0
440300000 -0.146956080 -0.513895808 -0.255100128  0.684209664 0 0 0 0
440400000 -0.160464592 -0.521646496 -0.240236880  0.682528192 0 0 0 0
440500000 -0.173710976 -0.528814688 -0.224812768  0.681026816 0 0 0 0
440600000 -0.187161408 -0.535168992 -0.209896400  0.678544448 0 0 0 0
440700000 -0.201253568 -0.541837824 -0.195310528  0.675223040 0 0 0 0
440800000 -0.214134928 -0.547414912 -0.181260560  0.672777088 0 0 0 0
440900000 -0.227382864 -0.552587648 -0.166556480  0.669625280 0 0 0 0
441000000 -0.241810336 -0.557202816 -0.152605232  0.666080896 0 0 0 0
