!File created by NanoVNA
# Hz S RI R 50
386000000 -0.469316064  1.014513374  0.025965944  0.004260821 0 0 0 0
387000000 -0.460916320  1.018725634  0.026543510  0.003918179 0 0 0 0
388000000 -0.455215552  1.021778822  0.027491302  0.004044496 0 0 0 0
389000000 -0.447163776  1.026593328  0.028026790  0.003903979 0 0 0 0
390000000 -0.445397536  1.019485712  0.028949810  0.003631905 0 0 0 0
391000000 -0.431581376  1.035790680  0.030182250  0.003767741 0 0 0 0
392000000 -0.423180160  1.038777112  0.030986690  0.003730827 0 0 0 0
393000000 -0.415250880  1.043185472  0.032398396  0.003347159 0 0 0 0
394000000 -0.405867424  1.047173976  0.033717232  0.003187871 0 0 0 0
395000000 -0.396697024  1.051281096  0.034703088  0.003199971 0 0 0 0
396000000 -0.386729152  1.056089880  0.035796896  0.003084806 0 0 0 0
397000000 -0.377283456  1.059954764  0.037233884  0.002749909 0 0 0 0
398000000 -0.365892256  1.063908456  0.039082584  0.002615361 0 0 0 0
399000000 -0.354598720  1.068841936  0.040397272  0.002074617 0 0 0 0
400000000 -0.342458112  1.073631760  0.042373740  0.002355313 0 0 0 0
401000000 -0.330708256  1.078165176  0.044153284  0.001662491 0 0 0 0
402000000 -0.317571040  1.081031320  0.046571860  0.001196722 0 0 0 0
403000000 -0.307261632  1.085188624  0.048377580  0.000763102 0 0 0 0
404000000 -0.289201984  1.090560320  0.051003636 -0.000004746 0 0 0 0
405000000 -0.273071008  1.095387576  0.053535328 -0.000516405 0 0 0 0
406000000 -0.256615664  1.099551920  0.056279516 -0.001147719 0 0 0 0
407000000 -0.237912496  1.103142976  0.059580580 -0.001791706 0 0 0 0
408000000 -0.218857456  1.107918144  0.063087724 -0.002697928 0 0 0 0
409000000 -0.199082592  1.111754176  0.066867808 -0.004052468 0 0 0 0
410000000 -0.176701360  1.114343880  0.071061600 -0.005722443 0 0 0 0
411000000 -0.152849360  1.117291096  0.075370776 -0.007052087 0 0 0 0
412000000 -0.126742440  1.119297984  0.080767552 -0.009269688 0 0 0 0
413000000 -0.097204112  1.120725512  0.086269360 -0.011540474 0 0 0 0
414000000 -0.068608168  1.121665952  0.093020440 -0.014147084 0 0 0 0
415000000 -0.033682568  1.120875120  0.099689936 -0.018146340 0 0 0 0
416000000 -0.000353543  1.119621752  0.108993592 -0.022614844 0 0 0 0
417000000  0.043145964  1.114436392  0.117130152 -0.027342122 0 0 0 0
418000000  0.087281336  1.106636168  0.127504408 -0.033552236 0 0 0 0
419000000  0.135173120  1.094361184  0.139058176 -0.041970612 0 0 0 0
420000000  0.189733792  1.076650144  0.152287376 -0.052275720 0 0 0 0
421000000  0.247219584  1.051496744  0.167460704 -0.065490632 0 0 0 0
422000000  0.312735680  1.019137144  0.184736464 -0.082880232 0 0 0 0
423000000  0.380138560  0.974107200  0.203596704 -0.105546968 0 0 0 0
424000000  0.453502816  0.913371328  0.224818416 -0.136196144 0 0 0 0
425000000  0.524351360  0.830419136  0.246280000 -0.177673184 0 0 0 0
426000000  0.590930432  0.721927232  0.266748784 -0.232242368 0 0 0 0
427000000  0.637080192  0.585004736  0.279509120 -0.306645664 0 0 0 0
428000000  0.653708096  0.421970336  0.275974208 -0.404698080 0 0 0 0
429000000  0.612291008  0.260915600  0.236750096 -0.523839712 0 0 0 0
430000000  0.529025856  0.077549768  0.147300864 -0.657957184 0 0 0 0
431000000  0.384295424 -0.047326924 -0.014171004 -0.766794688 0 0 0 0
432000000  0.216512640 -0.106703912 -0.232201488 -0.806656576 0 0 0 0
433000000  0.064413480 -0.101575656 -0.457491872 -0.753828928 0 0 0 0
434000000 -0.043536144 -0.052638492 -0.643668352 -0.626179712 0 0 0 0
435000000 -0.095634528  0.007330914 -0.771323328 -0.459962944 0 0 0 0
436000000 -0.099137824  0.048208928 -0.849734336 -0.277487680 0 0 0 0
437000000 -0.074421344  0.047218492 -0.888112576 -0.084479688 0 0 0 0
438000000 -0.052376156 -0.008172054 -0.883954752  0.118430912 0 0 0 0
439000000 -0.067680464 -0.109021408 -0.820796224  0.330578432 0 0 0 0
440000000 -0.147755424 -0.221516400 -0.681013056  0.522750560 0 0 0 0
441000000 -0.288884576 -0.302064480 -0.469579328  0.646109056 0 0 0 0
442000000 -0.458240416 -0.321573120 -0.241306928  0.664296000 0 0 0 0
443000000 -0.613666176 -0.281436192 -0.059788884  0.594552000 0 0 0 0
444000000 -0.739076096 -0.204348112  0.053516044  0.491039808 0 0 0 0
445000000 -0.829210112 -0.113435312  0.110701568  0.389238336 0 0 0 0
446000000 -0.888670208 -0.019238584  0.133407624  0.305037440 0 0 0 0
447000000 -0.925772352  0.068388792  0.137364992  0.238869824 0 0 0 0
448000000 -0.948704192  0.148645536  0.132016080  0.188974448 0 0 0 0
449000000 -0.958829824  0.220826432  0.123079048  0.151014640 0 0 0 0
450000000 -0.962589312  0.284784064  0.112981736  0.122057032 0 0 0 0
451000000 -0.960770112  0.340412960  0.102348688  0.099778552 0 0 0 0
452000000 -0.956532096  0.389505184  0.092954112  0.082741144 0 0 0 0
453000000 -0.948343744  0.433847360  0.084175616  0.069196824 0 0 0 0
454000000 -0.939969664  0.472839264  0.076497536  0.058367596 0 0 0 0
455000000 -0.938633472  0.517281952  0.069285952  0.050276472 0 0 0 0
456000000 -0.920427328  0.539156480  0.063552432  0.042278452 0 0 0 0
457000000 -0.909910080  0.567569152  0.057939052  0.037029216 0 0 0 0
458000000 -0.901055360  0.595177152  0.052794136  0.032184552 0 0 0 0
459000000 -0.890389696  0.618462912  0.048236752  0.028249964 0 0 0 0
460000000 -0.881244032  0.638567680  0.044686572  0.024867464 0 0 0 0
461000000 -0.871055360  0.660339008  0.041402868  0.021837018 0 0 0 0
462000000 -0.861486592  0.677794880  0.038178912  0.019136918 0 0 0 0
463000000 -0.850502976  0.695535808  0.035208380  0.017623152 0 0 0 0
464000000 -0.842341760  0.711183616  0.033080340  0.015290808 0 0 0 0
465000000 -0.833060672  0.725642944  0.030444580  0.013914590 0 0 0 0
466000000 -0.824061952  0.740432000  0.028442054  0.012588756 0 0 0 0
467000000 -0.815614208  0.753815936  0.026859250  0.011362752 0 0 0 0
468000000 -0.787373248  0.760862592  0.024980828  0.010576960 0 0 0 0
469000000 -0.799199680  0.776348864  0.023442384  0.009517856 0 0 0 0
470000000 -0.791725568  0.789165056  0.021939066  0.008671642 0 0 0 0
471000000 -0.783708608  0.798575040  0.020757336  0.007867025 0 0 0 0
472000000 -0.775908352  0.808859712  0.019609584  0.007311948 0 0 0 0
473000000 -0.769536192  0.820140288  0.018476150  0.006763671 0 0 0 0
474000000 -0.762495296  0.827184768  0.017341810  0.005842029 0 0 0 0
475000000 -0.755087168  0.835821760  0.016520956  0.006038056 0 0 0 0
476000000 -0.748285056  0.843823872  0.015728614  0.005264895 0 0 0 0
477000000 -0.742354880  0.851544768  0.014853772  0.004784260 0 0 0 0
478000000 -0.735083968  0.859334656  0.014334682  0.004515810 0 0 0 0
479000000 -0.729134144  0.866832768  0.013819650  0.004347429 0 0 0 0
480000000 -0.722197504  0.873862144  0.012738464  0.004383276 0 0 0 0
481000000 -0.717554240  0.877229184  0.012290840  0.004042068 0 0 0 0
482000000 -0.711271680  0.886507648  0.012027628  0.003424271 0 0 0 0
483000000 -0.706029248  0.892689728  0.011358760  0.003227232 0 0 0 0
484000000 -0.699483008  0.898791296  0.010899260  0.002886475 0 0 0 0
485000000 -0.695377216  0.906058112  0.010519064  0.002762062 0 0 0 0
486000000 -0.689415168  0.910419456  0.010079046  0.002566375 0 0 0 0
