!File created by NanoVNA
# Hz S RI R 50
431000000  0.381644640 -0.061230864 -0.012563258 -0.768680576 0 0 0 0
431100000  0.363987136 -0.071789312 -0.032795102 -0.776073472 0 0 0 0
431200000  0.347113440 -0.079815272 -0.052912384 -0.783261184 0 0 0 0
431300000  0.329698176 -0.087852536 -0.074073848 -0.790440192 0 0 0 0
431400000  0.312973984 -0.095541408 -0.095973880 -0.795268032 0 0 0 0
431500000  0.296044256 -0.101474904 -0.117014768 -0.800345600 0 0 0 0
431600000  0.278011936 -0.107066408 -0.140030864 -0.803711872 0 0 0 0
431700000  0.260460400 -0.111636336 -0.162309408 -0.806677248 0 0 0 0
431800000  0.243350160 -0.115998048 -0.185184384 -0.807824000 0 0 0 0
431900000  0.226468368 -0.119140944 -0.208530128 -0.809399744 0 0 0 0
432000000  0.209809200 -0.122327384 -0.232058672 -0.809321984 0 0 0 0
432100000  0.192110112 -0.124511320 -0.254872352 -0.808053504 0 0 0 0
432200000  0.175918512 -0.125776920 -0.277975264 -0.806281344 0 0 0 0
432300000  0.159490896 -0.126519976 -0.301507168 -0.803039872 0 0 0 0
432400000  0.143452304 -0.126502168 -0.324928288 -0.798975872 0 0 0 0
432500000  0.127086552 -0.126405792 -0.347522112 -0.794085120 0 0 0 0
432600000  0.111924824 -0.124752752 -0.370347008 -0.788560064 0 0 0 0
432700000  0.096293896 -0.123529648 -0.392474176 -0.780883072 0 0 0 0
432800000  0.081625016 -0.121988728 -0.414837248 -0.773637504 0 0 0 0
432900000  0.066933616 -0.118977232 -0.436691936 -0.765559168 0 0 0 0
433000000  0.053158224 -0.115759216 -0.458417536 -0.755790144 0 0 0 0
433100000  0.039267948 -0.112030568 -0.478566656 -0.746067520 0 0 0 0
433200000  0.026945616 -0.108002152 -0.499272256 -0.734754880 0 0 0 0
433300000  0.015435862 -0.108234984 -0.513927296 -0.728911424 0 0 0 0
433400000  0.002293044 -0.098834888 -0.538128064 -0.711997440 0 0 0 0
433500000 -0.009204314 -0.094035696 -0.557812800 -0.698867264 0 0 0 0
433600000 -0.020696450 -0.088485352 -0.575985920 -0.685717312 0 0 0 0
433700000 -0.030765772 -0.082838624 -0.593904000 -0.672349824 0 0 0 0
433800000 -0.040474416 -0.077343536 -0.611226432 -0.657620032 0 0 0 0
433900000 -0.050407612 -0.070999256 -0.627882816 -0.642645568 0 0 0 0
434000000 -0.058626772 -0.064721600 -0.644352640 -0.627484160 0 0 0 0
434100000 -0.066738600 -0.058767840 -0.659204800 -0.612372416 0 0 0 0
434200000 -0.074653280 -0.052353716 -0.673702336 -0.596492928 0 0 0 0
434300000 -0.081661792 -0.045198608 -0.687736192 -0.580448832 0 0 0 0
434400000 -0.088492912 -0.038927140 -0.701964672 -0.563490688 0 0 0 0
434500000 -0.093905360 -0.032270696 -0.714923392 -0.546527680 0 0 0 0
434600000 -0.099345056 -0.025812182 -0.726776256 -0.530182016 0 0 0 0
434700000 -0.104171392 -0.020030514 -0.739828480 -0.512758496 0 0 0 0
434800000 -0.108604528 -0.013675932 -0.750376704 -0.494504768 0 0 0 0
434900000 -0.112105072 -0.007598208 -0.761422464 -0.477944128 0 0 0 0
435000000 -0.115514896 -0.001599889 -0.771930688 -0.460625408 0 0 0 0
435100000 -0.118362152  0.004352733 -0.781661824 -0.442168480 0 0 0 0
435200000 -0.120904488  0.009713400 -0.791706240 -0.424524672 0 0 0 0
435300000 -0.122259392  0.015234118 -0.800030592 -0.406117792 0 0 0 0
435400000 -0.123733584  0.020124964 -0.809067008 -0.387999520 0 0 0 0
435500000 -0.124117688  0.025351480 -0.816686080 -0.369508416 0 0 0 0
435600000 -0.124529192  0.029946870 -0.824916160 -0.350942272 0 0 0 0
435700000 -0.124517416  0.033928488 -0.831054784 -0.332979296 0 0 0 0
435800000 -0.124573592  0.037310968 -0.837945472 -0.314365056 0 0 0 0
435900000 -0.123611640  0.040739180 -0.844078720 -0.295669152 0 0 0 0
436000000 -0.123340392  0.043978084 -0.850787456 -0.278131264 0 0 0 0
436100000 -0.121982160  0.046526088 -0.855964992 -0.258286656 0 0 0 0
436200000 -0.120222240  0.049077724 -0.861582784 -0.240028000 0 0 0 0
436300000 -0.118777032  0.050536412 -0.866283328 -0.221183872 0 0 0 0
436400000 -0.116572984  0.052150468 -0.870704896 -0.201573664 0 0 0 0
436500000 -0.113857696  0.052782504 -0.873912512 -0.182558832 0 0 0 0
436600000 -0.111505872  0.053069140 -0.877876544 -0.163130992 0 0 0 0
436700000 -0.108944720  0.052761680 -0.881061696 -0.144716688 0 0 0 0
436800000 -0.105954328  0.051969108 -0.884136576 -0.123614312 0 0 0 0
436900000 -0.103558040  0.050746128 -0.886473280 -0.105456504 0 0 0 0
437000000 -0.100561768  0.048854704 -0.888777472 -0.085957048 0 0 0 0
437100000 -0.097771312  0.046491416 -0.889461056 -0.065793872 0 0 0 0
437200000 -0.095241392  0.043445460 -0.891908672 -0.046593876 0 0 0 0
437300000 -0.092158624  0.040180476 -0.892289280 -0.026007950 0 0 0 0
437400000 -0.088932992  0.035760060 -0.887753920 -0.009102106 0 0 0 0
437500000 -0.086922912  0.031673924 -0.893251648  0.015132576 0 0 0 0
437600000 -0.084975832  0.026240106 -0.892117952  0.035293520 0 0 0 0
437700000 -0.082817216  0.020614276 -0.891230912  0.055030940 0 0 0 0
437800000 -0.081201688  0.014470982 -0.889751104  0.075458168 0 0 0 0
437900000 -0.079481248  0.007822692 -0.887876288  0.097730520 0 0 0 0
438000000 -0.078132864  0.000800065 -0.884774336  0.118305176 0 0 0 0
438100000 -0.077038528 -0.007155895 -0.882188800  0.139053520 0 0 0 0
438200000 -0.076728288 -0.014843668 -0.877840128  0.160111600 0 0 0 0
438300000 -0.076492008 -0.023532196 -0.873871296  0.181931888 0 0 0 0
438400000 -0.076877792 -0.032845336 -0.869055616  0.201598672 0 0 0 0
438500000 -0.077355928 -0.042097816 -0.862854016  0.224503904 0 0 0 0
438600000 -0.079313216 -0.051593612 -0.856002112  0.245130592 0 0 0 0
438700000 -0.081707832 -0.062394900 -0.848834816  0.266501936 0 0 0 0
438800000 -0.084017776 -0.072290112 -0.841673280  0.288540832 0 0 0 0
438900000 -0.087090512 -0.083201160 -0.832248064  0.309027840 0 0 0 0
439000000 -0.090883896 -0.093709984 -0.822630912  0.330503296 0 0 0 0
439100000 -0.095136696 -0.104293864 -0.812623040  0.352253344 0 0 0 0
439200000 -0.100642320 -0.115643968 -0.802168256  0.371685824 0 0 0 0
439300000 -0.106218928 -0.126776960 -0.790440704  0.392168128 0 0 0 0
439400000 -0.112205080 -0.138014960 -0.777254528  0.413038304 0 0 0 0
439500000 -0.119901464 -0.149446144 -0.764152320  0.433320864 0 0 0 0
439600000 -0.128088384 -0.160392352 -0.748866368  0.452231616 0 0 0 0
439700000 -0.137141648 -0.171063344 -0.733861888  0.471401024 0 0 0 0
439800000 -0.145974464 -0.181625136 -0.718376960  0.490623584 0 0 0 0
439900000 -0.155755424 -0.191947264 -0.701573440  0.506288992 0 0 0 0
440000000 -0.166744640 -0.202810816 -0.683270016  0.524624896 0 0 0 0
440100000 -0.177755840 -0.212572256 -0.664757504  0.541852800 0 0 0 0
440200000 -0.189872000 -0.222245728 -0.645106752  0.557370432 0 0 0 0
440300000 -0.202426128 -0.231487552 -0.624771904  0.571764864 0 0 0 0
440400000 -0.215371840 -0.240004592 -0.604980288  0.584589056 0 0 0 0
440500000 -0.228452480 -0.248069920 -0.583695488  0.598616000 0 0 0 0
440600000 -0.242650432 -0.255848496 -0.562365888  0.611473024 0 0 0 0
440700000 -0.257229360 -0.263349120 -0.539670208  0.621501952 0 0 0 0
440800000 -0.272442944 -0.269487840 -0.516360224  0.632210624 0 0 0 0
440900000 -0.287421152 -0.275993600 -0.494814048  0.641423616 0 0 0 0
441000000 -0.303504128 -0.281066560 -0.470699008  0.649240576 0 0 0 0
