!File created by NanoVNA
# Hz S RI R 50
1000000 -0.999269312  0.001700329 -0.000007301  0.000009427 0 0 0 0
10990000 -0.998474304  0.017840448  0.000022262  0.000440865 0 0 0 0
20980000 -0.997657856  0.033334632  0.000079482  0.000884799 0 0 0 0
30970000 -0.996656256  0.048942048  0.000124282  0.001256579 0 0 0 0
40960000 -0.995556352  0.064284636  0.000272671  0.001654125 0 0 0 0
50950000 -0.994288896  0.079925176  0.000375550  0.002007717 0 0 0 0
60940000 -0.992706496  0.095527408  0.000583550  0.002362200 0 0 0 0
70930000 -0.991279232  0.110748176  0.000750112  0.002721195 0 0 0 0
80920000 -0.988941760  0.126192272  0.000993619  0.003002035 0 0 0 0
90910000 -0.986124352  0.141564816  0.001306485  0.003360112 0 0 0 0
100900000 -0.984067456  0.156897152  0.001521062  0.003620284 0 0 0 0
110890000 -0.981967552  0.173724048  0.001823672  0.003854104 0 0 0 0
120880000 -0.979088320  0.189221904  0.002131673  0.004040694 0 0 0 0
130870000 -0.976883456  0.205971040  0.002495764  0.004190234 0 0 0 0
140860000 -0.970864512  0.222994688  0.002683324  0.004395383 0 0 0 0
150850000 -0.968477312  0.236642048  0.003029589  0.004475856 0 0 0 0
160840000 -0.964602560  0.252650736  0.003294797  0.004692271 0 0 0 0
170830000 -0.961110592  0.268709760  0.003582090  0.004837063 0 0 0 0
180820000 -0.956682752  0.285215008  0.003961175  0.004908720 0 0 0 0
190810000 -0.951512192  0.301351680  0.004324067  0.004957121 0 0 0 0
200800000 -0.946483136  0.317295040  0.004653169  0.004998761 0 0 0 0
210790000 -0.941565696  0.334270528  0.004912260  0.005076025 0 0 0 0
220780000 -0.935197504  0.352983648  0.005371244  0.004993972 0 0 0 0
230770000 -0.927796224  0.369676128  0.005623298  0.005080464 0 0 0 0
240760000 -0.921191936  0.386781024  0.005997750  0.005118885 0 0 0 0
250750000 -0.913525440  0.404485440  0.006347374  0.005183612 0 0 0 0
260740000 -0.905549696  0.422008320  0.006726076  0.005198902 0 0 0 0
270730000 -0.896677760  0.440224544  0.007126823  0.005223478 0 0 0 0
280720000 -0.887646464  0.459499904  0.007617043  0.005276937 0 0 0 0
290710000 -0.877326400  0.479519104  0.008077499  0.005299138 0 0 0 0
300700000 -0.869799808  0.498442144  0.009115022  0.005348789 0 0 0 0
310690000 -0.858802816  0.521758912  0.010247576  0.005463279 0 0 0 0
320680000 -0.843057856  0.548507584  0.010179096  0.004823024 0 0 0 0
330670000 -0.825781440  0.574623488  0.010984686  0.005290484 0 0 0 0
340660000 -0.807033152  0.602383552  0.012792432  0.005508284 0 0 0 0
350650000 -0.783175232  0.634011072  0.014646756  0.005274654 0 0 0 0
360640000 -0.752237760  0.669350784  0.016983578  0.005607457 0 0 0 0
370630000 -0.712444032  0.711325376  0.021493564  0.005212846 0 0 0 0
380620000 -0.656610816  0.765059264  0.027789156  0.004875768 0 0 0 0
390610000 -0.565586688  0.832355584  0.040331136  0.003479988 0 0 0 0
400600000 -0.398125024  0.916070336  0.067992272 -0.003383983 0 0 0 0
410590000 -0.004575814  0.958833536  0.140762688 -0.045559724 0 0 0 0
420580000  0.634690816  0.088875912  0.215510960 -0.436820480 0 0 0 0
430570000 -0.397124736  0.003269593 -0.744721536 -0.227145232 0 0 0 0
440560000 -0.445304256 -0.553002240 -0.010566324  0.586152576 0 0 0 0
450550000 -0.945132480 -0.137732224  0.129400520  0.134131400 0 0 0 0
460540000 -0.979648384  0.110474392  0.078366040  0.050228244 0 0 0 0
470530000 -0.965965952  0.244638672  0.053859564  0.026103576 0 0 0 0
480520000 -0.944656384  0.330806144  0.041013412  0.016504232 0 0 0 0
490510000 -0.925733184  0.391506464  0.033185546  0.011508214 0 0 0 0
500500000 -0.906815168  0.438046560  0.028904412  0.008793462 0 0 0 0
510490000 -0.889535104  0.476263264  0.026036686  0.006795332 0 0 0 0
520480000 -0.873258048  0.507398912  0.023802326  0.005593973 0 0 0 0
530470000 -0.858778944  0.534334944  0.021423070  0.004138771 0 0 0 0
540460000 -0.843304832  0.561916608  0.019935184  0.004299842 0 0 0 0
550450000 -0.828574656  0.583259968  0.020884518  0.004190417 0 0 0 0
560440000 -0.816713344  0.603313408  0.020201058  0.003247331 0 0 0 0
570430000 -0.800735744  0.624237568  0.019817870  0.001914491 0 0 0 0
580420000 -0.785771072  0.640655744  0.018499098  0.000906428 0 0 0 0
590410000 -0.773457856  0.647828928  0.017661886  0.001477465 0 0 0 0
600400000 -0.763544000  0.662172096  0.016908436  0.001236465 0 0 0 0
610390000 -0.751221376  0.677089472  0.016979700  0.001673929 0 0 0 0
620380000 -0.738475200  0.688701632  0.017215392  0.001255165 0 0 0 0
630370000 -0.733359872  0.700846656  0.017805718  0.000627350 0 0 0 0
640360000 -0.726138624  0.721099520  0.017463018 -0.000623138 0 0 0 0
650350000 -0.710715008  0.734868224  0.015399094  0.000557881 0 0 0 0
660340000 -0.705557248  0.748341248  0.016545674  0.002182042 0 0 0 0
670330000 -0.690280704  0.766460416  0.016984098  0.002196284 0 0 0 0
680320000 -0.675521856  0.781516864  0.017150256  0.001380975 0 0 0 0
690310000 -0.657115008  0.795684864  0.016890264  0.001664419 0 0 0 0
700300000 -0.638067008  0.807207616  0.018085010  0.001733841 0 0 0 0
710290000 -0.622107840  0.816644800  0.019058930  0.002386830 0 0 0 0
720280000 -0.610149632  0.826805184  0.019349104 -0.000274976 0 0 0 0
730270000 -0.590471488  0.836535552  0.018000770 -0.002873144 0 0 0 0
740260000 -0.576191808  0.842934976  0.017563902 -0.002560295 0 0 0 0
750250000 -0.563871360  0.852331136  0.017792626 -0.002013378 0 0 0 0
760240000 -0.547966336  0.859688896  0.017246426 -0.002465217 0 0 0 0
770230000 -0.528088640  0.863162880  0.017440364 -0.002706747 0 0 0 0
780220000 -0.516524736  0.864542336  0.017686516 -0.002173993 0 0 0 0
790210000 -0.502113984  0.870551616  0.017819184 -0.003329698 0 0 0 0
800200000 -0.489682816  0.879385728  0.017518844 -0.003868254 0 0 0 0
810190000 -0.476656800  0.885408704  0.017666010 -0.003231732 0 0 0 0
820180000 -0.458475008  0.886782400  0.016745258 -0.004395963 0 0 0 0
830170000 -0.445826592  0.893639552  0.017113450 -0.004525409 0 0 0 0
840160000 -0.430538144  0.896548992  0.016528882 -0.004980314 0 0 0 0
850150000 -0.415411104  0.903476160  0.016738240 -0.005678050 0 0 0 0
860140000 -0.398879840  0.909318720  0.016903172 -0.005473840 0 0 0 0
870130000 -0.382269920  0.911359872  0.016883616 -0.006042730 0 0 0 0
880120000 -0.368063104  0.916017792  0.016998316 -0.005140210 0 0 0 0
890110000 -0.351880576  0.922047616  0.016992576 -0.005528972 0 0 0 0
900100000 -0.309676384  0.869495872  0.017450652 -0.005719511 0 0 0 0
910090000 -0.298080896  0.870687616  0.016850730 -0.006308236 0 0 0 0
920080000 -0.269171712  0.870338752  0.019068200 -0.003481894 0 0 0 0
930070000 -0.254470384  0.864299328  0.014846482 -0.004584644 0 0 0 0
940060000 -0.239933968  0.861141568  0.015552226 -0.004081757 0 0 0 0
950050000 -0.223633296  0.858046848  0.015779748 -0.004568641 0 0 0 0
960040000 -0.210842880  0.854392128  0.015390836 -0.007043514 0 0 0 0
970030000 -0.188833536  0.849115456  0.013359320 -0.006020404 0 0 0 0
980020000 -0.164944736  0.842892288  0.014942632 -0.005111668 0 0 0 0
990010000 -0.151379600  0.825323840  0.016409472 -0.004045571 0 0 0 0
1000000000 -0.143769808  0.827236992  0.016801264 -0.001478713 0 0 0 0
